;; translated from ./lustre/_6countern.vmt
;; original benchmark available at: https://es-static.fbk.eu/people/griggio/ic3ia/index.html
;; author: Alberto Griggio <griggio@fbk.eu>
(set-logic HORN)
(declare-fun state (Int Int Bool Int Int) Bool)
(assert (forall ((|_OK___AT0| Bool) (|time__AT0| Int) (|xite__AT0| Int) (|param__init___AT0| Int) (|flby__AT0| Int) (|param__init___AT1| Int) (|xite__AT1| Int) (|flby__AT1| Int) (|_OK___AT1| Bool) (|time__AT1| Int)) (=> (let ((.def_14 (<= 0 time__AT0)))
(let ((.def_15 (not .def_14)))
(let ((.def_17 (= .def_15 _OK___AT0)))
(let ((.def_13 (= flby__AT0 time__AT0)))
(let ((.def_18 (and .def_13 .def_17)))
(let ((.def_11 (= flby__AT0 0)))
(let ((.def_19 (and .def_11 .def_18)))
.def_19))))))) (state |flby__AT0| |time__AT0| |_OK___AT0| |xite__AT0| |param__init___AT0|))))
(assert (forall ((|_OK___AT0| Bool) (|time__AT0| Int) (|xite__AT0| Int) (|param__init___AT0| Int) (|flby__AT0| Int) (|param__init___AT1| Int) (|xite__AT1| Int) (|flby__AT1| Int) (|_OK___AT1| Bool) (|time__AT1| Int)) (=> (and (state |flby__AT0| |time__AT0| |_OK___AT0| |xite__AT0| |param__init___AT0|) (let ((.def_38 (* (- 1) xite__AT1)))
(let ((.def_39 (+ time__AT0 .def_38)))
(let ((.def_40 (= .def_39 (- 1))))
(let ((.def_32 (= time__AT0 5)))
(let ((.def_41 (or .def_32 .def_40)))
(let ((.def_34 (= xite__AT1 0)))
(let ((.def_33 (not .def_32)))
(let ((.def_35 (or .def_33 .def_34)))
(let ((.def_42 (and .def_35 .def_41)))
(let ((.def_30 (= flby__AT1 xite__AT1)))
(let ((.def_43 (and .def_30 .def_42)))
(let ((.def_23 (<= 0 time__AT1)))
(let ((.def_24 (not .def_23)))
(let ((.def_26 (= .def_24 _OK___AT1)))
(let ((.def_22 (= time__AT1 flby__AT1)))
(let ((.def_27 (and .def_22 .def_26)))
(let ((.def_14 (<= 0 time__AT0)))
(let ((.def_15 (not .def_14)))
(let ((.def_17 (= .def_15 _OK___AT0)))
(let ((.def_13 (= flby__AT0 time__AT0)))
(let ((.def_18 (and .def_13 .def_17)))
(let ((.def_28 (and .def_18 .def_27)))
(let ((.def_44 (and .def_28 .def_43)))
.def_44)))))))))))))))))))))))) (state |flby__AT1| |time__AT1| |_OK___AT1| |xite__AT1| |param__init___AT1|))))
(assert (forall ((|_OK___AT0| Bool) (|time__AT0| Int) (|xite__AT0| Int) (|param__init___AT0| Int) (|flby__AT0| Int) (|param__init___AT1| Int) (|xite__AT1| Int) (|flby__AT1| Int) (|_OK___AT1| Bool) (|time__AT1| Int)) (=> (state |flby__AT0| |time__AT0| |_OK___AT0| |xite__AT0| |param__init___AT0|) _OK___AT0)))
(check-sat)
